ampl: option 'ipopt_options' 'print_timing_statistics=yes';ampl: model 'lockdown_model.mod'; model;ampl: data 'lockdown_data.dat'; model;ampl: model 'lockdown_runR.mod'; model;Ipopt 3.14.17: print_timing_statistics=yes


******************************************************************************
This program contains Ipopt, a library for large-scale nonlinear optimization.
 Ipopt is released as open source code under the Eclipse Public License (EPL).
         For more information visit https://github.com/coin-or/Ipopt
******************************************************************************

This is Ipopt version 3.14.17, running with linear solver MUMPS 5.6.2.

Number of nonzeros in equality constraint Jacobian...:      803
Number of nonzeros in inequality constraint Jacobian.:       51
Number of nonzeros in Lagrangian Hessian.............:      250

Total number of variables............................:      304
                     variables with only lower bounds:      100
                variables with lower and upper bounds:      204
                     variables with only upper bounds:        0
Total number of equality constraints.................:      253
Total number of inequality constraints...............:        1
        inequality constraints with only lower bounds:        0
   inequality constraints with lower and upper bounds:        0
        inequality constraints with only upper bounds:        1

iter    objective    inf_pr   inf_du lg(mu)  ||d||  lg(rg) alpha_du alpha_pr  ls
   0  9.9999900e-03 9.80e-01 9.95e-01  -1.0 0.00e+00    -  0.00e+00 0.00e+00   0
   1  3.8752245e-01 1.01e-02 2.09e+03  -1.0 8.98e+00    -  1.11e-02 9.90e-01f  1
   2  4.5393339e-01 9.23e-03 1.92e+03  -1.0 1.09e+00    -  5.18e-02 8.39e-02h  1
   3  5.0338659e-01 8.56e-03 1.78e+03  -1.0 4.55e+00    -  2.96e-01 7.41e-02h  1
   4  5.9325874e-01 7.37e-03 1.53e+03  -1.0 9.16e-01    -  3.57e-01 1.45e-01h  1
   5  6.3627046e-01 6.32e-03 1.31e+03  -1.0 6.38e-01    -  4.55e-01 1.48e-01h  1
   6  6.7307666e-01 5.31e-03 1.23e+03  -1.0 5.94e-01    -  5.30e-01 1.70e-01h  1
   7  7.1508092e-01 4.31e-03 1.72e+03  -1.0 5.69e-01    -  5.82e-01 2.03e-01h  1
   8  7.6229762e-01 3.49e-03 2.24e+03  -1.0 6.13e-01    -  5.78e-01 2.14e-01h  1
   9  8.2695602e-01 6.39e-03 2.64e+03  -1.0 7.25e-01    -  4.84e-01 2.06e-01h  1
iter    objective    inf_pr   inf_du lg(mu)  ||d||  lg(rg) alpha_du alpha_pr  ls
  10  8.3019489e-01 5.30e-03 5.40e+03  -1.0 4.08e-01   2.0 1.00e+00 1.77e-01h  1
  11  8.3102695e-01 5.07e-03 7.64e+03  -1.0 8.19e-01   1.5 5.64e-01 4.41e-02h  1
  12  8.3247160e-01 4.88e-03 7.67e+03  -1.0 3.63e+00   1.0 1.05e-01 3.90e-02h  1
  13  8.3422635e-01 4.82e-03 7.83e+03  -1.0 4.12e+00   0.6 6.09e-02 1.21e-02h  1
  14  8.3595228e-01 4.68e-03 8.42e+03  -1.0 3.43e+00   1.0 1.91e-01 3.11e-02h  1
  15  8.4091292e-01 4.60e-03 2.56e+04  -1.0 3.30e+00   0.5 2.26e-01 2.04e-02h  1
  16  8.4301420e-01 4.57e-03 3.81e+05  -1.0 2.21e+00   0.9 3.26e-01 7.12e-03h  1
  17  8.4364536e-01 4.57e-03 1.37e+06  -1.0 6.73e+01   1.4 3.44e-03 5.33e-05h  5
  18  8.4373258e-01 4.57e-03 1.70e+06  -1.0 7.78e+02   0.9 3.14e-04 6.45e-07f 10
  19  8.4651863e-01 4.56e-03 1.92e+06  -1.0 1.53e+03    -  1.85e-04 1.05e-05f  5
iter    objective    inf_pr   inf_du lg(mu)  ||d||  lg(rg) alpha_du alpha_pr  ls
  20  8.4915714e-01 4.54e-03 2.93e+06  -1.0 6.00e+02    -  6.98e-04 2.67e-05f  5
  21  8.5165852e-01 4.52e-03 6.70e+06  -1.0 3.42e+02    -  1.62e-03 4.68e-05f  5
  22r 8.5165852e-01 4.52e-03 1.00e+03  -1.0 0.00e+00    -  0.00e+00 4.35e-07R 12
  23r 8.4349964e-01 2.11e-03 9.16e+02  -1.0 2.87e-01    -  3.52e-01 3.58e-02f  1
  24  8.4351825e-01 2.11e-03 2.66e+00  -1.7 2.76e-01    -  2.15e-03 6.17e-04h  1
  25  8.4352851e-01 2.10e-03 3.63e+03  -1.7 1.96e+00    -  3.30e-01 4.32e-04h  1
  26  8.4420871e-01 2.10e-03 1.72e+05  -1.7 2.60e+01    -  8.71e-03 1.81e-04h  1
  27r 8.4420871e-01 2.10e-03 1.00e+03  -1.7 0.00e+00    -  0.00e+00 2.65e-07R  7
  28r 8.4175528e-01 2.13e-03 9.90e+02  -1.7 2.92e-01    -  1.78e-01 9.74e-03f  1
  29r 8.4944513e-01 3.08e-03 8.14e+02  -1.7 1.46e-01    -  2.79e-01 1.77e-01f  1
iter    objective    inf_pr   inf_du lg(mu)  ||d||  lg(rg) alpha_du alpha_pr  ls
  30r 8.5246661e-01 2.66e-03 7.00e+02  -1.7 1.31e-01    -  1.73e-01 1.39e-01f  1
  31r 8.5599364e-01 2.82e-03 5.79e+02  -1.7 1.46e-01    -  2.96e-01 1.71e-01f  1
  32r 8.6057699e-01 5.14e-03 4.51e+02  -1.7 1.77e-01    -  2.13e-01 2.21e-01f  1
  33r 8.6158639e-01 4.53e-03 4.26e+02  -1.7 1.86e-01    -  1.11e-02 7.58e-02f  1
  34r 8.6247472e-01 6.07e-03 4.03e+02  -1.7 1.93e-01    -  4.98e-02 5.99e-02f  1
  35r 8.6301895e-01 7.60e-03 3.49e+02  -1.7 1.81e-01    -  2.90e-01 5.39e-02f  1
  36r 8.6718332e-01 6.66e-03 2.39e+02  -1.7 2.74e-01    -  8.76e-01 1.82e-01f  1
  37r 8.8290208e-01 2.40e-02 1.86e+02  -1.7 1.24e+00    -  2.92e-01 2.13e-01f  1
  38r 8.9142069e-01 1.77e-02 1.17e+02  -1.7 3.89e-01    -  3.46e-01 3.74e-01f  1
  39r 9.0187778e-01 3.65e-02 4.82e+01  -1.7 3.49e-01    -  7.94e-01 9.38e-01f  1
iter    objective    inf_pr   inf_du lg(mu)  ||d||  lg(rg) alpha_du alpha_pr  ls
  40r 9.0372157e-01 3.22e-02 3.56e+01  -1.7 5.39e-01    -  1.41e-01 1.11e-01f  1
  41r 9.0407209e-01 2.03e-02 1.41e+02  -1.7 6.55e-01    -  2.17e-01 5.46e-01f  1
  42r 9.0426564e-01 1.74e-02 1.43e+02  -1.7 4.11e-01   0.0 6.71e-01 1.46e-01f  1
  43r 9.0655231e-01 1.66e-02 1.50e+02  -1.7 9.37e-01  -0.5 1.15e-01 7.42e-02f  2
  44r 9.0268996e-01 1.52e-02 1.17e+02  -1.7 6.67e+00  -0.1 1.80e-02 5.06e-02f  1
  45r 8.8043137e-01 9.63e-03 2.01e+02  -1.7 2.49e-01   0.4 3.40e-01 8.26e-01f  1
  46r 8.6314323e-01 1.05e-02 1.74e+02  -1.7 7.55e-01  -0.1 2.17e-01 4.46e-01f  1
  47r 8.5540864e-01 9.11e-03 1.44e+02  -1.7 2.33e+00    -  1.38e-01 1.22e-01f  1
  48r 8.5076922e-01 9.14e-03 1.52e+02  -1.7 1.04e+02    -  1.73e-03 3.05e-03f  1
  49r 8.4510264e-01 7.50e-03 1.01e+02  -1.7 8.29e-01    -  2.71e-01 2.09e-01f  1
iter    objective    inf_pr   inf_du lg(mu)  ||d||  lg(rg) alpha_du alpha_pr  ls
  50r 8.2786299e-01 7.17e-03 2.71e+01  -1.7 2.49e-01   0.3 8.29e-01 1.00e+00f  1
  51r 8.2179509e-01 7.31e-03 4.19e+00  -1.7 8.84e-02   0.7 1.00e+00 1.00e+00f  1
  52r 8.1343925e-01 7.75e-03 6.89e+01  -1.7 2.33e-01   0.3 4.80e-01 1.00e+00f  1
  53r 8.1207846e-01 7.79e-03 5.71e+01  -1.7 8.17e+01  -0.2 2.17e-03 1.33e-03f  2
  54r 8.0950981e-01 7.90e-03 6.69e+01  -1.7 2.51e+00    -  1.64e-01 8.87e-02f  1
  55r 8.0411823e-01 8.10e-03 1.29e+01  -1.7 1.31e-01   0.2 1.00e+00 9.16e-01f  1
  56r 8.0274689e-01 8.61e-03 3.84e+01  -1.7 5.41e-01  -0.3 4.77e-01 3.88e-01f  1
  57r 7.9821666e-01 8.69e-03 8.81e-01  -1.7 7.39e-02   1.1 1.00e+00 1.00e+00f  1
  58r 7.9561430e-01 9.15e-03 4.07e+00  -1.7 5.35e-02   0.6 9.16e-01 1.00e+00f  1
  59r 7.9460347e-01 9.18e-03 7.88e-01  -1.7 3.99e-02   1.0 1.00e+00 1.00e+00f  1
iter    objective    inf_pr   inf_du lg(mu)  ||d||  lg(rg) alpha_du alpha_pr  ls
  60r 7.9368513e-01 9.87e-03 3.32e+00  -2.5 7.55e-02   0.5 7.25e-01 7.08e-01f  1
  61r 7.9296296e-01 9.81e-03 4.18e+01  -2.5 7.42e-02   0.1 8.71e-01 7.39e-01f  1
  62r 7.9256379e-01 9.77e-03 7.38e-02  -2.5 2.46e-02   0.5 1.00e+00 1.00e+00f  1
  63r 7.9414913e-01 9.69e-03 1.39e+01  -3.8 9.29e-02   0.0 6.31e-01 7.77e-01f  1
  64r 7.9505967e-01 9.61e-03 1.11e+01  -3.8 6.50e-02   0.4 6.78e-01 4.60e-01f  1
  65r 7.9557662e-01 9.50e-03 1.92e-01  -3.8 2.62e-02   0.9 1.00e+00 1.00e+00f  1
  66r 7.9688751e-01 9.37e-03 2.90e+01  -3.8 1.72e-01   0.4 8.04e-01 2.55e-01f  1
  67r 7.9828750e-01 9.15e-03 4.27e-01  -3.8 5.68e-02   0.8 1.00e+00 1.00e+00f  1
  68r 7.9959444e-01 8.98e-03 4.32e-01  -3.8 2.46e-02   1.2 1.00e+00 1.00e+00f  1
  69r 8.0120105e-01 8.77e-03 4.36e+01  -3.8 1.45e-01   0.8 1.00e+00 2.39e-01f  1
iter    objective    inf_pr   inf_du lg(mu)  ||d||  lg(rg) alpha_du alpha_pr  ls
  70r 8.0284407e-01 8.43e-03 7.01e-01  -3.8 4.49e-02   1.2 1.00e+00 1.00e+00f  1
  71r 8.0736494e-01 7.63e-03 3.66e+01  -3.8 1.07e+00   0.7 1.49e-01 7.87e-02f  1
  72r 8.0939380e-01 7.01e-03 8.65e+01  -3.8 1.80e-01   1.1 1.00e+00 2.00e-01f  1
  73r 8.1073792e-01 6.42e-03 7.96e+00  -3.8 4.83e-02   1.6 1.00e+00 4.44e-01f  1
  74r 8.1313870e-01 5.48e-03 4.51e+01  -3.8 1.02e+00   1.1 1.54e-01 3.77e-02f  1
  75r 8.1775838e-01 2.37e-03 4.25e+00  -3.8 1.04e-01   1.5 1.00e+00 8.88e-01f  1
  76r 8.1894398e-01 6.10e-04 1.15e+01  -3.8 5.33e-02   1.9 1.00e+00 5.80e-01f  1
  77  8.1260305e-01 7.12e-04 3.80e+04  -1.7 1.18e-01    -  5.23e-01 1.00e+00f  1
  78  7.9898606e-01 1.54e-03 1.33e+05  -1.7 1.69e+00    -  3.63e-01 2.81e-01f  1
  79  7.7543706e-01 1.43e-03 2.69e+05  -1.7 1.89e-01    -  7.05e-01 9.28e-01f  1
iter    objective    inf_pr   inf_du lg(mu)  ||d||  lg(rg) alpha_du alpha_pr  ls
  80  7.7346728e-01 3.14e-04 1.32e+04  -1.7 2.03e-01    -  1.00e+00 8.67e-01f  1
  81  7.7425845e-01 1.36e-04 1.45e-02  -1.7 6.14e-02    -  1.00e+00 1.00e+00f  1
  82  7.7313791e-01 3.67e-06 2.11e+05  -5.7 2.11e-02    -  8.95e-01 1.00e+00h  1
  83  7.5868336e-01 6.19e-04 1.04e+05  -5.7 2.30e-01    -  5.05e-01 1.00e+00f  1
  84  7.5125650e-01 5.21e-04 4.08e+04  -5.7 2.27e-01    -  6.08e-01 4.85e-01h  1
  85  7.4358223e-01 7.25e-04 3.44e+04  -5.7 1.00e+00    -  1.58e-01 3.46e-01h  1
  86  7.3935254e-01 4.47e-04 2.05e+04  -5.7 2.27e-01    -  4.04e-01 5.17e-01h  1
  87  7.3636046e-01 3.11e-04 3.19e+03  -5.7 5.15e-01    -  8.44e-01 4.19e-01h  1
  88  7.3235818e-01 1.30e-04 1.57e+03  -5.7 2.67e-01    -  5.06e-01 7.68e-01h  1
  89  7.3111165e-01 3.63e-06 1.72e-03  -5.7 5.12e-02    -  1.00e+00 1.00e+00h  1
iter    objective    inf_pr   inf_du lg(mu)  ||d||  lg(rg) alpha_du alpha_pr  ls
  90  7.3108416e-01 5.04e-09 1.30e-06  -5.7 9.45e-04    -  1.00e+00 1.00e+00h  1
  91  7.3099347e-01 5.11e-08 9.07e+00  -8.6 3.16e-03    -  9.95e-01 9.46e-01h  1
  92  7.3098832e-01 6.10e-11 1.24e-08  -8.6 9.71e-05    -  1.00e+00 1.00e+00f  1
  93  7.3098823e-01 3.77e-14 3.15e-12  -9.0 2.57e-06    -  1.00e+00 1.00e+00h  1

Number of Iterations....: 93

                                   (scaled)                 (unscaled)
Objective...............:   7.3098823270824653e-01    7.3098823270824653e-01
Dual infeasibility......:   3.1525422700996640e-12    3.1525422700996640e-12
Constraint violation....:   3.7749317560731299e-14    3.7749317560731299e-14
Variable bound violation:   0.0000000000000000e+00    0.0000000000000000e+00
Complementarity.........:   9.3573877480645105e-10    9.3573877480645105e-10
Overall NLP error.......:   9.3573877480645105e-10    9.3573877480645105e-10


Number of objective function evaluations             = 150
Number of objective gradient evaluations             = 46
Number of equality constraint evaluations            = 150
Number of inequality constraint evaluations          = 150
Number of equality constraint Jacobian evaluations   = 96
Number of inequality constraint Jacobian evaluations = 96
Number of Lagrangian Hessian evaluations             = 93
Total seconds in IPOPT (w/o function evaluations)    =      0.055
Total seconds in NLP function evaluations            =      0.002


Timing Statistics:

OverallAlgorithm....................:      0.048 (sys:      0.006 wall:      0.058)
 PrintProblemStatistics.............:      0.000 (sys:      0.000 wall:      0.000)
 InitializeIterates.................:      0.001 (sys:      0.001 wall:      0.005)
 UpdateHessian......................:      0.001 (sys:      0.000 wall:      0.001)
 OutputIteration....................:      0.000 (sys:      0.000 wall:      0.000)
 UpdateBarrierParameter.............:      0.000 (sys:      0.000 wall:      0.000)
 ComputeSearchDirection.............:      0.015 (sys:      0.002 wall:      0.017)
 ComputeAcceptableTrialPoint........:      0.031 (sys:      0.003 wall:      0.033)
 AcceptTrialPoint...................:      0.000 (sys:      0.000 wall:      0.000)
 CheckConvergence...................:      0.001 (sys:      0.000 wall:      0.001)
PDSystemSolverTotal.................:      0.015 (sys:      0.002 wall:      0.017)
 PDSystemSolverSolveOnce............:      0.014 (sys:      0.002 wall:      0.016)
 ComputeResiduals...................:      0.001 (sys:      0.000 wall:      0.001)
 StdAugSystemSolverMultiSolve.......:      0.032 (sys:      0.004 wall:      0.038)
 LinearSystemScaling................:      0.000 (sys:      0.000 wall:      0.000)
 LinearSystemSymbolicFactorization..:      0.000 (sys:      0.000 wall:      0.001)
 LinearSystemFactorization..........:      0.000 (sys:      0.000 wall:      0.000)
 LinearSystemBackSolve..............:      0.013 (sys:      0.001 wall:      0.014)
 LinearSystemStructureConverter.....:      0.000 (sys:      0.000 wall:      0.000)
  LinearSystemStructureConverterInit:      0.000 (sys:      0.000 wall:      0.000)
QualityFunctionSearch...............:      0.000 (sys:      0.000 wall:      0.000)
TryCorrector........................:      0.000 (sys:      0.000 wall:      0.000)
Task1...............................:      0.000 (sys:      0.000 wall:      0.000)
Task2...............................:      0.000 (sys:      0.000 wall:      0.000)
Task3...............................:      0.000 (sys:      0.000 wall:      0.000)
Task4...............................:      0.000 (sys:      0.000 wall:      0.000)
Task5...............................:      0.000 (sys:      0.000 wall:      0.000)
Task6...............................:      0.000 (sys:      0.000 wall:      0.000)
Function Evaluations................:      0.002 (sys:      0.000 wall:      0.002)
 Objective function.................:      0.000 (sys:      0.000 wall:      0.000)
 Objective function gradient........:      0.000 (sys:      0.000 wall:      0.000)
 Equality constraints...............:      0.001 (sys:      0.000 wall:      0.001)
 Inequality constraints.............:      0.000 (sys:      0.000 wall:      0.000)
 Equality constraint Jacobian.......:      0.000 (sys:      0.000 wall:      0.000)
 Inequality constraint Jacobian.....:      0.000 (sys:      0.000 wall:      0.000)
 Lagrangian Hessian.................:      0.001 (sys:      0.000 wall:      0.001)

EXIT: Optimal Solution Found.
 
Ipopt 3.14.17: Optimal Solution Found

suffix ipopt_zU_out OUT;
suffix ipopt_zL_out OUT;
:       S            I             C             v         :=
1    0.99       0.01          1.15214e-39   3.58761e-08
2    0.980149   0.015916      0.00985066    3.76354e-08
3    0.964673   0.0251301     0.0253272     4.05879e-08
4    0.940733   0.0391824     0.0492674     4.57272e-08
5    0.904585   0.0599126     0.0854148     5.52454e-08
6    0.851981   0.0889434     0.138019      7.49482e-08
7    0.779475   0.126453      0.210525      1.26081e-07
8    0.686886   0.169287      0.303114      3.82055e-07
9    0.579915   0.209648      0.410085      0.5
10   0.522203   0.18487       0.467797      0.5
11   0.476097   0.158235      0.513903      0.5
12   0.439881   0.132191      0.550119      0.5
13   0.411747   0.108312      0.578253      0.5
14   0.390042   0.0873999     0.599958      0.5
15   0.373364   0.0696884     0.616636      0.5
16   0.360578   0.0550537     0.629422      0.5
17   0.350788   0.043182      0.639212      0.5
18   0.343295   0.0336839     0.646705      0.499999
19   0.337562   0.0261637     0.652438      1.67958e-07
20   0.328845   0.0245864     0.661155      1.32715e-07
21   0.320858   0.0228989     0.669142      1.07874e-07
22   0.313594   0.0211527     0.676406      8.99479e-08
23   0.307031   0.0193935     0.682969      7.67088e-08
24   0.301134   0.0176598     0.688866      6.67228e-08
25   0.295862   0.0159825     0.694138      5.90487e-08
26   0.291171   0.0143849     0.698829      5.30549e-08
27   0.287013   0.0128833     0.702987      4.83075e-08
28   0.283339   0.0114881     0.706661      4.45015e-08
29   0.280102   0.0102043     0.709898      4.14185e-08
30   0.277259   0.00903293    0.712741      3.88988e-08
31   0.274766   0.00797194    0.715234      3.68235e-08
32   0.272584   0.00701693    0.717416      3.51031e-08
33   0.270678   0.00616199    0.719322      3.36687e-08
34   0.269015   0.00540022    0.720985      3.24669e-08
35   0.267566   0.00472423    0.722434      3.14558e-08
36   0.266305   0.00412645    0.723695      3.0602e-08
37   0.265209   0.00359945    0.724791      2.98788e-08
38   0.264256   0.00313607    0.725744      2.92646e-08
39   0.263428   0.00272954    0.726572      2.87418e-08
40   0.26271    0.00237361    0.72729       2.82959e-08
41   0.262087   0.0020625     0.727913      2.79148e-08
42   0.261547   0.00179097    0.728453      2.75888e-08
43   0.261079   0.00155428    0.728921      2.73094e-08
44   0.260674   0.